20
587 233 220
70 63 49
84 54 49
89 70 42
80 48 39
114 47 42
92 62 34
72 66 43
120 55 46
106 62 25
72 53 34
74 44 35
103 71 28
115 35 31
117 62 39
60 32 32
86 80 39
71 70 42
87 58 32
97 44 29
95 61 30
thpack7_31